model/burma14.lp
\ENCODING=ISO-8859-1
\Problem name: burma14

Minimize
 obj1: x(1,1) + 154 x(1,2) + 560 x(1,3) + 707 x(1,4) + 967 x(1,5) + 582 x(1,6)
       + 456 x(1,7) + 71 x(1,8) + 161 x(1,9) + 372 x(1,10) + 170 x(1,11)
       + 501 x(1,12) + 342 x(1,13) + 427 x(1,14) + 154 x(2,1) + x(2,2)
       + 459 x(2,3) + 664 x(2,4) + 998 x(2,5) + 599 x(2,6) + 508 x(2,7)
       + 197 x(2,8) + 312 x(2,9) + 479 x(2,10) + 317 x(2,11) + 496 x(2,12)
       + 417 x(2,13) + 379 x(2,14) + 560 x(3,1) + 459 x(3,2) + x(3,3)
       + 314 x(3,4) + 789 x(3,5) + 451 x(3,6) + 507 x(3,7) + 548 x(3,8)
       + 701 x(3,9) + 928 x(3,10) + 721 x(3,11) + 343 x(3,12) + 525 x(3,13)
       + 212 x(3,14) + 707 x(4,1) + 664 x(4,2) + 314 x(4,3) + x(4,4)
       + 491 x(4,5) + 265 x(4,6) + 411 x(4,7) + 664 x(4,8) + 805 x(4,9)
       + 1070 x(4,10) + 832 x(4,11) + 239 x(4,12) + 500 x(4,13) + 287 x(4,14)
       + 967 x(5,1) + 998 x(5,2) + 789 x(5,3) + 491 x(5,4) + x(5,5)
       + 401 x(5,6) + 514 x(5,7) + 902 x(5,8) + 990 x(5,9) + 1262 x(5,10)
       + 1022 x(5,11) + 513 x(5,12) + 636 x(5,13) + 667 x(5,14) + 582 x(6,1)
       + 599 x(6,2) + 451 x(6,3) + 265 x(6,4) + 401 x(6,5) + x(6,6)
       + 168 x(6,7) + 522 x(6,8) + 635 x(6,9) + 910 x(6,10) + 665 x(6,11)
       + 120 x(6,12) + 285 x(6,13) + 281 x(6,14) + 456 x(7,1) + 508 x(7,2)
       + 507 x(7,3) + 411 x(7,4) + 514 x(7,5) + 168 x(7,6) + x(7,7)
       + 389 x(7,8) + 482 x(7,9) + 757 x(7,10) + 513 x(7,11) + 185 x(7,12)
       + 125 x(7,13) + 300 x(7,14) + 71 x(8,1) + 197 x(8,2) + 548 x(8,3)
       + 664 x(8,4) + 902 x(8,5) + 522 x(8,6) + 389 x(8,7) + x(8,8)
       + 155 x(8,9) + 407 x(8,10) + 176 x(8,11) + 449 x(8,12) + 274 x(8,13)
       + 393 x(8,14) + 161 x(9,1) + 312 x(9,2) + 701 x(9,3) + 805 x(9,4)
       + 990 x(9,5) + 635 x(9,6) + 482 x(9,7) + 155 x(9,8) + x(9,9)
       + 277 x(9,10) + 33 x(9,11) + 578 x(9,12) + 358 x(9,13) + 542 x(9,14)
       + 372 x(10,1) + 479 x(10,2) + 928 x(10,3) + 1070 x(10,4) + 1262 x(10,5)
       + 910 x(10,6) + 757 x(10,7) + 407 x(10,8) + 277 x(10,9) + x(10,10)
       + 246 x(10,11) + 850 x(10,12) + 633 x(10,13) + 796 x(10,14)
       + 170 x(11,1) + 317 x(11,2) + 721 x(11,3) + 832 x(11,4) + 1022 x(11,5)
       + 665 x(11,6) + 513 x(11,7) + 176 x(11,8) + 33 x(11,9) + 246 x(11,10)
       + x(11,11) + 607 x(11,12) + 389 x(11,13) + 566 x(11,14) + 501 x(12,1)
       + 496 x(12,2) + 343 x(12,3) + 239 x(12,4) + 513 x(12,5) + 120 x(12,6)
       + 185 x(12,7) + 449 x(12,8) + 578 x(12,9) + 850 x(12,10) + 607 x(12,11)
       + x(12,12) + 261 x(12,13) + 162 x(12,14) + 342 x(13,1) + 417 x(13,2)
       + 525 x(13,3) + 500 x(13,4) + 636 x(13,5) + 285 x(13,6) + 125 x(13,7)
       + 274 x(13,8) + 358 x(13,9) + 633 x(13,10) + 389 x(13,11) + 261 x(13,12)
       + x(13,13) + 316 x(13,14) + 427 x(14,1) + 379 x(14,2) + 212 x(14,3)
       + 287 x(14,4) + 667 x(14,5) + 281 x(14,6) + 300 x(14,7) + 393 x(14,8)
       + 542 x(14,9) + 796 x(14,10) + 566 x(14,11) + 162 x(14,12)
       + 316 x(14,13) + x(14,14)
Subject To
 degree(1):  x(1,2) + x(1,3) + x(1,4) + x(1,5) + x(1,6) + x(1,7) + x(1,8)
             + x(1,9) + x(1,10) + x(1,11) + x(1,12) + x(1,13) + x(1,14)  = 1
 degree(2):  x(2,1) + x(2,3) + x(2,4) + x(2,5) + x(2,6) + x(2,7) + x(2,8)
             + x(2,9) + x(2,10) + x(2,11) + x(2,12) + x(2,13) + x(2,14)  = 1
 degree(3):  x(3,1) + x(3,2) + x(3,4) + x(3,5) + x(3,6) + x(3,7) + x(3,8)
             + x(3,9) + x(3,10) + x(3,11) + x(3,12) + x(3,13) + x(3,14)  = 1
 degree(4):  x(4,1) + x(4,2) + x(4,3) + x(4,5) + x(4,6) + x(4,7) + x(4,8)
             + x(4,9) + x(4,10) + x(4,11) + x(4,12) + x(4,13) + x(4,14)  = 1
 degree(5):  x(5,1) + x(5,2) + x(5,3) + x(5,4) + x(5,6) + x(5,7) + x(5,8)
             + x(5,9) + x(5,10) + x(5,11) + x(5,12) + x(5,13) + x(5,14)  = 1
 degree(6):  x(6,1) + x(6,2) + x(6,3) + x(6,4) + x(6,5) + x(6,7) + x(6,8)
             + x(6,9) + x(6,10) + x(6,11) + x(6,12) + x(6,13) + x(6,14)  = 1
 degree(7):  x(7,1) + x(7,2) + x(7,3) + x(7,4) + x(7,5) + x(7,6) + x(7,8)
             + x(7,9) + x(7,10) + x(7,11) + x(7,12) + x(7,13) + x(7,14)  = 1
 degree(8):  x(8,1) + x(8,2) + x(8,3) + x(8,4) + x(8,5) + x(8,6) + x(8,7)
             + x(8,9) + x(8,10) + x(8,11) + x(8,12) + x(8,13) + x(8,14)  = 1
 degree(9):  x(9,1) + x(9,2) + x(9,3) + x(9,4) + x(9,5) + x(9,6) + x(9,7)
             + x(9,8) + x(9,10) + x(9,11) + x(9,12) + x(9,13) + x(9,14)  = 1
 degree(10): x(10,1) + x(10,2) + x(10,3) + x(10,4) + x(10,5) + x(10,6)
             + x(10,7) + x(10,8) + x(10,9) + x(10,11) + x(10,12) + x(10,13)
             + x(10,14)  = 1
 degree(11): x(11,1) + x(11,2) + x(11,3) + x(11,4) + x(11,5) + x(11,6)
             + x(11,7) + x(11,8) + x(11,9) + x(11,10) + x(11,12) + x(11,13)
             + x(11,14)  = 1
 degree(12): x(12,1) + x(12,2) + x(12,3) + x(12,4) + x(12,5) + x(12,6)
             + x(12,7) + x(12,8) + x(12,9) + x(12,10) + x(12,11) + x(12,13)
             + x(12,14)  = 1
 degree(13): x(13,1) + x(13,2) + x(13,3) + x(13,4) + x(13,5) + x(13,6)
             + x(13,7) + x(13,8) + x(13,9) + x(13,10) + x(13,11) + x(13,12)
             + x(13,14)  = 1
 degree(14): x(14,1) + x(14,2) + x(14,3) + x(14,4) + x(14,5) + x(14,6)
             + x(14,7) + x(14,8) + x(14,9) + x(14,10) + x(14,11) + x(14,12)
             + x(14,13)  = 1
 degree(15): x(2,1) + x(3,1) + x(4,1) + x(5,1) + x(6,1) + x(7,1) + x(8,1)
             + x(9,1) + x(10,1) + x(11,1) + x(12,1) + x(13,1) + x(14,1)  = 1
 degree(16): x(1,2) + x(3,2) + x(4,2) + x(5,2) + x(6,2) + x(7,2) + x(8,2)
             + x(9,2) + x(10,2) + x(11,2) + x(12,2) + x(13,2) + x(14,2)  = 1
 degree(17): x(1,3) + x(2,3) + x(4,3) + x(5,3) + x(6,3) + x(7,3) + x(8,3)
             + x(9,3) + x(10,3) + x(11,3) + x(12,3) + x(13,3) + x(14,3)  = 1
 degree(18): x(1,4) + x(2,4) + x(3,4) + x(5,4) + x(6,4) + x(7,4) + x(8,4)
             + x(9,4) + x(10,4) + x(11,4) + x(12,4) + x(13,4) + x(14,4)  = 1
 degree(19): x(1,5) + x(2,5) + x(3,5) + x(4,5) + x(6,5) + x(7,5) + x(8,5)
             + x(9,5) + x(10,5) + x(11,5) + x(12,5) + x(13,5) + x(14,5)  = 1
 degree(20): x(1,6) + x(2,6) + x(3,6) + x(4,6) + x(5,6) + x(7,6) + x(8,6)
             + x(9,6) + x(10,6) + x(11,6) + x(12,6) + x(13,6) + x(14,6)  = 1
 degree(21): x(1,7) + x(2,7) + x(3,7) + x(4,7) + x(5,7) + x(6,7) + x(8,7)
             + x(9,7) + x(10,7) + x(11,7) + x(12,7) + x(13,7) + x(14,7)  = 1
 degree(22): x(1,8) + x(2,8) + x(3,8) + x(4,8) + x(5,8) + x(6,8) + x(7,8)
             + x(9,8) + x(10,8) + x(11,8) + x(12,8) + x(13,8) + x(14,8)  = 1
 degree(23): x(1,9) + x(2,9) + x(3,9) + x(4,9) + x(5,9) + x(6,9) + x(7,9)
             + x(8,9) + x(10,9) + x(11,9) + x(12,9) + x(13,9) + x(14,9)  = 1
 degree(24): x(1,10) + x(2,10) + x(3,10) + x(4,10) + x(5,10) + x(6,10)
             + x(7,10) + x(8,10) + x(9,10) + x(11,10) + x(12,10) + x(13,10)
             + x(14,10)  = 1
 degree(25): x(1,11) + x(2,11) + x(3,11) + x(4,11) + x(5,11) + x(6,11)
             + x(7,11) + x(8,11) + x(9,11) + x(10,11) + x(12,11) + x(13,11)
             + x(14,11)  = 1
 degree(26): x(1,12) + x(2,12) + x(3,12) + x(4,12) + x(5,12) + x(6,12)
             + x(7,12) + x(8,12) + x(9,12) + x(10,12) + x(11,12) + x(13,12)
             + x(14,12)  = 1
 degree(27): x(1,13) + x(2,13) + x(3,13) + x(4,13) + x(5,13) + x(6,13)
             + x(7,13) + x(8,13) + x(9,13) + x(10,13) + x(11,13) + x(12,13)
             + x(14,13)  = 1
 degree(28): x(1,14) + x(2,14) + x(3,14) + x(4,14) + x(5,14) + x(6,14)
             + x(7,14) + x(8,14) + x(9,14) + x(10,14) + x(11,14) + x(12,14)
             + x(13,14)  = 1
Lazy Constraints
 l1:   Rgl1  = 1
 l2:   Rgl2 - Rgl2 + 13 x(2,3) <= 12
 l3:   Rgl3 - Rgl3 + 13 x(2,4) <= 12
 l4:   Rgl4 - Rgl4 + 13 x(2,5) <= 12
 l5:   Rgl5 - Rgl5 + 13 x(2,6) <= 12
 l6:   Rgl6 - Rgl6 + 13 x(2,7) <= 12
 l7:   Rgl7 - Rgl7 + 13 x(2,8) <= 12
 l8:   Rgl8 - Rgl8 + 13 x(2,9) <= 12
 l9:   Rgl9 - Rgl9 + 13 x(2,10) <= 12
 l10:  Rgl10 - Rgl10 + 13 x(2,11) <= 12
 l11:  Rgl11 - Rgl11 + 13 x(2,12) <= 12
 l12:  Rgl12 - Rgl12 + 13 x(2,13) <= 12
 l13:  Rgl13 - Rgl13 + 13 x(2,14) <= 12
 l14:  Rgl14 - Rgl14 + 13 x(3,2) <= 12
 l15:  Rgl15 - Rgl15 + 13 x(3,4) <= 12
 l16:  Rgl16 - Rgl16 + 13 x(3,5) <= 12
 l17:  Rgl17 - Rgl17 + 13 x(3,6) <= 12
 l18:  Rgl18 - Rgl18 + 13 x(3,7) <= 12
 l19:  Rgl19 - Rgl19 + 13 x(3,8) <= 12
 l20:  Rgl20 - Rgl20 + 13 x(3,9) <= 12
 l21:  Rgl21 - Rgl21 + 13 x(3,10) <= 12
 l22:  Rgl22 - Rgl22 + 13 x(3,11) <= 12
 l23:  Rgl23 - Rgl23 + 13 x(3,12) <= 12
 l24:  Rgl24 - Rgl24 + 13 x(3,13) <= 12
 l25:  Rgl25 - Rgl25 + 13 x(3,14) <= 12
 l26:  Rgl26 - Rgl26 + 13 x(4,2) <= 12
 l27:  Rgl27 - Rgl27 + 13 x(4,3) <= 12
 l28:  Rgl28 - Rgl28 + 13 x(4,5) <= 12
 l29:  Rgl29 - Rgl29 + 13 x(4,6) <= 12
 l30:  Rgl30 - Rgl30 + 13 x(4,7) <= 12
 l31:  Rgl31 - Rgl31 + 13 x(4,8) <= 12
 l32:  Rgl32 - Rgl32 + 13 x(4,9) <= 12
 l33:  Rgl33 - Rgl33 + 13 x(4,10) <= 12
 l34:  Rgl34 - Rgl34 + 13 x(4,11) <= 12
 l35:  Rgl35 - Rgl35 + 13 x(4,12) <= 12
 l36:  Rgl36 - Rgl36 + 13 x(4,13) <= 12
 l37:  Rgl37 - Rgl37 + 13 x(4,14) <= 12
 l38:  Rgl38 - Rgl38 + 13 x(5,2) <= 12
 l39:  Rgl39 - Rgl39 + 13 x(5,3) <= 12
 l40:  Rgl40 - Rgl40 + 13 x(5,4) <= 12
 l41:  Rgl41 - Rgl41 + 13 x(5,6) <= 12
 l42:  Rgl42 - Rgl42 + 13 x(5,7) <= 12
 l43:  Rgl43 - Rgl43 + 13 x(5,8) <= 12
 l44:  Rgl44 - Rgl44 + 13 x(5,9) <= 12
 l45:  Rgl45 - Rgl45 + 13 x(5,10) <= 12
 l46:  Rgl46 - Rgl46 + 13 x(5,11) <= 12
 l47:  Rgl47 - Rgl47 + 13 x(5,12) <= 12
 l48:  Rgl48 - Rgl48 + 13 x(5,13) <= 12
 l49:  Rgl49 - Rgl49 + 13 x(5,14) <= 12
 l50:  Rgl50 - Rgl50 + 13 x(6,2) <= 12
 l51:  Rgl51 - Rgl51 + 13 x(6,3) <= 12
 l52:  Rgl52 - Rgl52 + 13 x(6,4) <= 12
 l53:  Rgl53 - Rgl53 + 13 x(6,5) <= 12
 l54:  Rgl54 - Rgl54 + 13 x(6,7) <= 12
 l55:  Rgl55 - Rgl55 + 13 x(6,8) <= 12
 l56:  Rgl56 - Rgl56 + 13 x(6,9) <= 12
 l57:  Rgl57 - Rgl57 + 13 x(6,10) <= 12
 l58:  Rgl58 - Rgl58 + 13 x(6,11) <= 12
 l59:  Rgl59 - Rgl59 + 13 x(6,12) <= 12
 l60:  Rgl60 - Rgl60 + 13 x(6,13) <= 12
 l61:  Rgl61 - Rgl61 + 13 x(6,14) <= 12
 l62:  Rgl62 - Rgl62 + 13 x(7,2) <= 12
 l63:  Rgl63 - Rgl63 + 13 x(7,3) <= 12
 l64:  Rgl64 - Rgl64 + 13 x(7,4) <= 12
 l65:  Rgl65 - Rgl65 + 13 x(7,5) <= 12
 l66:  Rgl66 - Rgl66 + 13 x(7,6) <= 12
 l67:  Rgl67 - Rgl67 + 13 x(7,8) <= 12
 l68:  Rgl68 - Rgl68 + 13 x(7,9) <= 12
 l69:  Rgl69 - Rgl69 + 13 x(7,10) <= 12
 l70:  Rgl70 - Rgl70 + 13 x(7,11) <= 12
 l71:  Rgl71 - Rgl71 + 13 x(7,12) <= 12
 l72:  Rgl72 - Rgl72 + 13 x(7,13) <= 12
 l73:  Rgl73 - Rgl73 + 13 x(7,14) <= 12
 l74:  Rgl74 - Rgl74 + 13 x(8,2) <= 12
 l75:  Rgl75 - Rgl75 + 13 x(8,3) <= 12
 l76:  Rgl76 - Rgl76 + 13 x(8,4) <= 12
 l77:  Rgl77 - Rgl77 + 13 x(8,5) <= 12
 l78:  Rgl78 - Rgl78 + 13 x(8,6) <= 12
 l79:  Rgl79 - Rgl79 + 13 x(8,7) <= 12
 l80:  Rgl80 - Rgl80 + 13 x(8,9) <= 12
 l81:  Rgl81 - Rgl81 + 13 x(8,10) <= 12
 l82:  Rgl82 - Rgl82 + 13 x(8,11) <= 12
 l83:  Rgl83 - Rgl83 + 13 x(8,12) <= 12
 l84:  Rgl84 - Rgl84 + 13 x(8,13) <= 12
 l85:  Rgl85 - Rgl85 + 13 x(8,14) <= 12
 l86:  Rgl86 - Rgl86 + 13 x(9,2) <= 12
 l87:  Rgl87 - Rgl87 + 13 x(9,3) <= 12
 l88:  Rgl88 - Rgl88 + 13 x(9,4) <= 12
 l89:  Rgl89 - Rgl89 + 13 x(9,5) <= 12
 l90:  Rgl90 - Rgl90 + 13 x(9,6) <= 12
 l91:  Rgl91 - Rgl91 + 13 x(9,7) <= 12
 l92:  Rgl92 - Rgl92 + 13 x(9,8) <= 12
 l93:  Rgl93 - Rgl93 + 13 x(9,10) <= 12
 l94:  Rgl94 - Rgl94 + 13 x(9,11) <= 12
 l95:  Rgl95 - Rgl95 + 13 x(9,12) <= 12
 l96:  Rgl96 - Rgl96 + 13 x(9,13) <= 12
 l97:  Rgl97 - Rgl97 + 13 x(9,14) <= 12
 l98:  Rgl98 - Rgl98 + 13 x(10,2) <= 12
 l99:  Rgl99 - Rgl99 + 13 x(10,3) <= 12
 l100: Rgl100 - Rgl100 + 13 x(10,4) <= 12
 l101: Rgl101 - Rgl101 + 13 x(10,5) <= 12
 l102: Rgl102 - Rgl102 + 13 x(10,6) <= 12
 l103: Rgl103 - Rgl103 + 13 x(10,7) <= 12
 l104: Rgl104 - Rgl104 + 13 x(10,8) <= 12
 l105: Rgl105 - Rgl105 + 13 x(10,9) <= 12
 l106: Rgl106 - Rgl106 + 13 x(10,11) <= 12
 l107: Rgl107 - Rgl107 + 13 x(10,12) <= 12
 l108: Rgl108 - Rgl108 + 13 x(10,13) <= 12
 l109: Rgl109 - Rgl109 + 13 x(10,14) <= 12
 l110: Rgl110 - Rgl110 + 13 x(11,2) <= 12
 l111: Rgl111 - Rgl111 + 13 x(11,3) <= 12
 l112: Rgl112 - Rgl112 + 13 x(11,4) <= 12
 l113: Rgl113 - Rgl113 + 13 x(11,5) <= 12
 l114: Rgl114 - Rgl114 + 13 x(11,6) <= 12
 l115: Rgl115 - Rgl115 + 13 x(11,7) <= 12
 l116: Rgl116 - Rgl116 + 13 x(11,8) <= 12
 l117: Rgl117 - Rgl117 + 13 x(11,9) <= 12
 l118: Rgl118 - Rgl118 + 13 x(11,10) <= 12
 l119: Rgl119 - Rgl119 + 13 x(11,12) <= 12
 l120: Rgl120 - Rgl120 + 13 x(11,13) <= 12
 l121: Rgl121 - Rgl121 + 13 x(11,14) <= 12
 l122: Rgl122 - Rgl122 + 13 x(12,2) <= 12
 l123: Rgl123 - Rgl123 + 13 x(12,3) <= 12
 l124: Rgl124 - Rgl124 + 13 x(12,4) <= 12
 l125: Rgl125 - Rgl125 + 13 x(12,5) <= 12
 l126: Rgl126 - Rgl126 + 13 x(12,6) <= 12
 l127: Rgl127 - Rgl127 + 13 x(12,7) <= 12
 l128: Rgl128 - Rgl128 + 13 x(12,8) <= 12
 l129: Rgl129 - Rgl129 + 13 x(12,9) <= 12
 l130: Rgl130 - Rgl130 + 13 x(12,10) <= 12
 l131: Rgl131 - Rgl131 + 13 x(12,11) <= 12
 l132: Rgl132 - Rgl132 + 13 x(12,13) <= 12
 l133: Rgl133 - Rgl133 + 13 x(12,14) <= 12
 l134: Rgl134 - Rgl134 + 13 x(13,2) <= 12
 l135: Rgl135 - Rgl135 + 13 x(13,3) <= 12
 l136: Rgl136 - Rgl136 + 13 x(13,4) <= 12
 l137: Rgl137 - Rgl137 + 13 x(13,5) <= 12
 l138: Rgl138 - Rgl138 + 13 x(13,6) <= 12
 l139: Rgl139 - Rgl139 + 13 x(13,7) <= 12
 l140: Rgl140 - Rgl140 + 13 x(13,8) <= 12
 l141: Rgl141 - Rgl141 + 13 x(13,9) <= 12
 l142: Rgl142 - Rgl142 + 13 x(13,10) <= 12
 l143: Rgl143 - Rgl143 + 13 x(13,11) <= 12
 l144: Rgl144 - Rgl144 + 13 x(13,12) <= 12
 l145: Rgl145 - Rgl145 + 13 x(13,14) <= 12
 l146: Rgl146 - Rgl146 + 13 x(14,2) <= 12
 l147: Rgl147 - Rgl147 + 13 x(14,3) <= 12
 l148: Rgl148 - Rgl148 + 13 x(14,4) <= 12
 l149: Rgl149 - Rgl149 + 13 x(14,5) <= 12
 l150: Rgl150 - Rgl150 + 13 x(14,6) <= 12
 l151: Rgl151 - Rgl151 + 13 x(14,7) <= 12
 l152: Rgl152 - Rgl152 + 13 x(14,8) <= 12
 l153: Rgl153 - Rgl153 + 13 x(14,9) <= 12
 l154: Rgl154 - Rgl154 + 13 x(14,10) <= 12
 l155: Rgl155 - Rgl155 + 13 x(14,11) <= 12
 l156: Rgl156 - Rgl156 + 13 x(14,12) <= 12
 l157: Rgl157 - Rgl157 + 13 x(14,13) <= 12
Bounds
      x(1,1) = 0
 0 <= x(1,2) <= 1
 0 <= x(1,3) <= 1
 0 <= x(1,4) <= 1
 0 <= x(1,5) <= 1
 0 <= x(1,6) <= 1
 0 <= x(1,7) <= 1
 0 <= x(1,8) <= 1
 0 <= x(1,9) <= 1
 0 <= x(1,10) <= 1
 0 <= x(1,11) <= 1
 0 <= x(1,12) <= 1
 0 <= x(1,13) <= 1
 0 <= x(1,14) <= 1
 0 <= x(2,1) <= 1
      x(2,2) = 0
 0 <= x(2,3) <= 1
 0 <= x(2,4) <= 1
 0 <= x(2,5) <= 1
 0 <= x(2,6) <= 1
 0 <= x(2,7) <= 1
 0 <= x(2,8) <= 1
 0 <= x(2,9) <= 1
 0 <= x(2,10) <= 1
 0 <= x(2,11) <= 1
 0 <= x(2,12) <= 1
 0 <= x(2,13) <= 1
 0 <= x(2,14) <= 1
 0 <= x(3,1) <= 1
 0 <= x(3,2) <= 1
      x(3,3) = 0
 0 <= x(3,4) <= 1
 0 <= x(3,5) <= 1
 0 <= x(3,6) <= 1
 0 <= x(3,7) <= 1
 0 <= x(3,8) <= 1
 0 <= x(3,9) <= 1
 0 <= x(3,10) <= 1
 0 <= x(3,11) <= 1
 0 <= x(3,12) <= 1
 0 <= x(3,13) <= 1
 0 <= x(3,14) <= 1
 0 <= x(4,1) <= 1
 0 <= x(4,2) <= 1
 0 <= x(4,3) <= 1
      x(4,4) = 0
 0 <= x(4,5) <= 1
 0 <= x(4,6) <= 1
 0 <= x(4,7) <= 1
 0 <= x(4,8) <= 1
 0 <= x(4,9) <= 1
 0 <= x(4,10) <= 1
 0 <= x(4,11) <= 1
 0 <= x(4,12) <= 1
 0 <= x(4,13) <= 1
 0 <= x(4,14) <= 1
 0 <= x(5,1) <= 1
 0 <= x(5,2) <= 1
 0 <= x(5,3) <= 1
 0 <= x(5,4) <= 1
      x(5,5) = 0
 0 <= x(5,6) <= 1
 0 <= x(5,7) <= 1
 0 <= x(5,8) <= 1
 0 <= x(5,9) <= 1
 0 <= x(5,10) <= 1
 0 <= x(5,11) <= 1
 0 <= x(5,12) <= 1
 0 <= x(5,13) <= 1
 0 <= x(5,14) <= 1
 0 <= x(6,1) <= 1
 0 <= x(6,2) <= 1
 0 <= x(6,3) <= 1
 0 <= x(6,4) <= 1
 0 <= x(6,5) <= 1
      x(6,6) = 0
 0 <= x(6,7) <= 1
 0 <= x(6,8) <= 1
 0 <= x(6,9) <= 1
 0 <= x(6,10) <= 1
 0 <= x(6,11) <= 1
 0 <= x(6,12) <= 1
 0 <= x(6,13) <= 1
 0 <= x(6,14) <= 1
 0 <= x(7,1) <= 1
 0 <= x(7,2) <= 1
 0 <= x(7,3) <= 1
 0 <= x(7,4) <= 1
 0 <= x(7,5) <= 1
 0 <= x(7,6) <= 1
      x(7,7) = 0
 0 <= x(7,8) <= 1
 0 <= x(7,9) <= 1
 0 <= x(7,10) <= 1
 0 <= x(7,11) <= 1
 0 <= x(7,12) <= 1
 0 <= x(7,13) <= 1
 0 <= x(7,14) <= 1
 0 <= x(8,1) <= 1
 0 <= x(8,2) <= 1
 0 <= x(8,3) <= 1
 0 <= x(8,4) <= 1
 0 <= x(8,5) <= 1
 0 <= x(8,6) <= 1
 0 <= x(8,7) <= 1
      x(8,8) = 0
 0 <= x(8,9) <= 1
 0 <= x(8,10) <= 1
 0 <= x(8,11) <= 1
 0 <= x(8,12) <= 1
 0 <= x(8,13) <= 1
 0 <= x(8,14) <= 1
 0 <= x(9,1) <= 1
 0 <= x(9,2) <= 1
 0 <= x(9,3) <= 1
 0 <= x(9,4) <= 1
 0 <= x(9,5) <= 1
 0 <= x(9,6) <= 1
 0 <= x(9,7) <= 1
 0 <= x(9,8) <= 1
      x(9,9) = 0
 0 <= x(9,10) <= 1
 0 <= x(9,11) <= 1
 0 <= x(9,12) <= 1
 0 <= x(9,13) <= 1
 0 <= x(9,14) <= 1
 0 <= x(10,1) <= 1
 0 <= x(10,2) <= 1
 0 <= x(10,3) <= 1
 0 <= x(10,4) <= 1
 0 <= x(10,5) <= 1
 0 <= x(10,6) <= 1
 0 <= x(10,7) <= 1
 0 <= x(10,8) <= 1
 0 <= x(10,9) <= 1
      x(10,10) = 0
 0 <= x(10,11) <= 1
 0 <= x(10,12) <= 1
 0 <= x(10,13) <= 1
 0 <= x(10,14) <= 1
 0 <= x(11,1) <= 1
 0 <= x(11,2) <= 1
 0 <= x(11,3) <= 1
 0 <= x(11,4) <= 1
 0 <= x(11,5) <= 1
 0 <= x(11,6) <= 1
 0 <= x(11,7) <= 1
 0 <= x(11,8) <= 1
 0 <= x(11,9) <= 1
 0 <= x(11,10) <= 1
      x(11,11) = 0
 0 <= x(11,12) <= 1
 0 <= x(11,13) <= 1
 0 <= x(11,14) <= 1
 0 <= x(12,1) <= 1
 0 <= x(12,2) <= 1
 0 <= x(12,3) <= 1
 0 <= x(12,4) <= 1
 0 <= x(12,5) <= 1
 0 <= x(12,6) <= 1
 0 <= x(12,7) <= 1
 0 <= x(12,8) <= 1
 0 <= x(12,9) <= 1
 0 <= x(12,10) <= 1
 0 <= x(12,11) <= 1
      x(12,12) = 0
 0 <= x(12,13) <= 1
 0 <= x(12,14) <= 1
 0 <= x(13,1) <= 1
 0 <= x(13,2) <= 1
 0 <= x(13,3) <= 1
 0 <= x(13,4) <= 1
 0 <= x(13,5) <= 1
 0 <= x(13,6) <= 1
 0 <= x(13,7) <= 1
 0 <= x(13,8) <= 1
 0 <= x(13,9) <= 1
 0 <= x(13,10) <= 1
 0 <= x(13,11) <= 1
 0 <= x(13,12) <= 1
      x(13,13) = 0
 0 <= x(13,14) <= 1
 0 <= x(14,1) <= 1
 0 <= x(14,2) <= 1
 0 <= x(14,3) <= 1
 0 <= x(14,4) <= 1
 0 <= x(14,5) <= 1
 0 <= x(14,6) <= 1
 0 <= x(14,7) <= 1
 0 <= x(14,8) <= 1
 0 <= x(14,9) <= 1
 0 <= x(14,10) <= 1
 0 <= x(14,11) <= 1
 0 <= x(14,12) <= 1
 0 <= x(14,13) <= 1
      x(14,14) = 0
Binaries
 x(1,1)  x(1,2)  x(1,3)  x(1,4)  x(1,5)  x(1,6)  x(1,7)  x(1,8)  x(1,9) 
 x(1,10)  x(1,11)  x(1,12)  x(1,13)  x(1,14)  x(2,1)  x(2,2)  x(2,3)  x(2,4) 
 x(2,5)  x(2,6)  x(2,7)  x(2,8)  x(2,9)  x(2,10)  x(2,11)  x(2,12)  x(2,13) 
 x(2,14)  x(3,1)  x(3,2)  x(3,3)  x(3,4)  x(3,5)  x(3,6)  x(3,7)  x(3,8) 
 x(3,9)  x(3,10)  x(3,11)  x(3,12)  x(3,13)  x(3,14)  x(4,1)  x(4,2)  x(4,3) 
 x(4,4)  x(4,5)  x(4,6)  x(4,7)  x(4,8)  x(4,9)  x(4,10)  x(4,11)  x(4,12) 
 x(4,13)  x(4,14)  x(5,1)  x(5,2)  x(5,3)  x(5,4)  x(5,5)  x(5,6)  x(5,7) 
 x(5,8)  x(5,9)  x(5,10)  x(5,11)  x(5,12)  x(5,13)  x(5,14)  x(6,1)  x(6,2) 
 x(6,3)  x(6,4)  x(6,5)  x(6,6)  x(6,7)  x(6,8)  x(6,9)  x(6,10)  x(6,11) 
 x(6,12)  x(6,13)  x(6,14)  x(7,1)  x(7,2)  x(7,3)  x(7,4)  x(7,5)  x(7,6) 
 x(7,7)  x(7,8)  x(7,9)  x(7,10)  x(7,11)  x(7,12)  x(7,13)  x(7,14)  x(8,1) 
 x(8,2)  x(8,3)  x(8,4)  x(8,5)  x(8,6)  x(8,7)  x(8,8)  x(8,9)  x(8,10) 
 x(8,11)  x(8,12)  x(8,13)  x(8,14)  x(9,1)  x(9,2)  x(9,3)  x(9,4)  x(9,5) 
 x(9,6)  x(9,7)  x(9,8)  x(9,9)  x(9,10)  x(9,11)  x(9,12)  x(9,13)  x(9,14) 
 x(10,1)  x(10,2)  x(10,3)  x(10,4)  x(10,5)  x(10,6)  x(10,7)  x(10,8) 
 x(10,9)  x(10,10)  x(10,11)  x(10,12)  x(10,13)  x(10,14)  x(11,1)  x(11,2) 
 x(11,3)  x(11,4)  x(11,5)  x(11,6)  x(11,7)  x(11,8)  x(11,9)  x(11,10) 
 x(11,11)  x(11,12)  x(11,13)  x(11,14)  x(12,1)  x(12,2)  x(12,3)  x(12,4) 
 x(12,5)  x(12,6)  x(12,7)  x(12,8)  x(12,9)  x(12,10)  x(12,11)  x(12,12) 
 x(12,13)  x(12,14)  x(13,1)  x(13,2)  x(13,3)  x(13,4)  x(13,5)  x(13,6) 
 x(13,7)  x(13,8)  x(13,9)  x(13,10)  x(13,11)  x(13,12)  x(13,13)  x(13,14) 
 x(14,1)  x(14,2)  x(14,3)  x(14,4)  x(14,5)  x(14,6)  x(14,7)  x(14,8) 
 x(14,9)  x(14,10)  x(14,11)  x(14,12)  x(14,13)  x(14,14) 
End
