webapp/backend/tour/burma14.tour
NAME : burma14.tour
TYPE : TOUR
DIMENSION : 14
OBJECTIVE : 3330.000000
TIME : 0.029782
TOUR_SECTION
1
2
14
3
4
5
6
12
7
13
8
11
9
10
-1
EOF